============================[ Problem Statistics ]=============================|                                                                             ||  Number of variables:          4242                                         ||  Number of clauses:            9636                                         ||  Parse time:                   0.04 s                                       ||                                                                             |============================[ Search Statistics ]==============================| Conflicts |          ORIGINAL         |          LEARNT          | Progress ||           |    Vars  Clauses Literals |    Limit  Clauses Lit/Cl |          |==============================================================================================================================================================restarts              : 1conflicts             : 28             (519 /sec)decisions             : 113            (0.00 % random) (2093 /sec)propagations          : 8064           (149333 /sec)conflict literals     : 797            (95.47 % deleted)CPU time              : 0.054 sSATISFIABLE